DATASET = "thpack3";
INSTANCE = "085";

WIDTH = 233;
HEIGHT = 220;
LENGTH = 587;

NO_OF_SHAPES = 8;
size = [|
  55,37,22 |
  72,55,31 |
  61,56,36 |
  76,72,22 |
  74,66,61 |
  43,39,32 |
  108,98,27 |
  109,73,65 |
|];

verticality = [|
  0,1,1 |
  0,1,1 |
  1,1,1 |
  0,0,1 |
  1,1,1 |
  1,1,1 |
  0,0,1 |
  1,1,1 |
|];

box_count = [
  23,
  14,
  20,
  19,
  20,
  11,
  18,
  21,
];
